unsat
(define-fun f ((x (_ BitVec 64))) (_ BitVec 64) (let ((_let_1 (smol x))) (let ((_let_2 (smol (bvor #b0000000000000000000000000000000000000000000000000000000000000001 (bvor x _let_1))))) (let ((_let_3 (bvadd x _let_1))) (let ((_let_4 (arba x))) (let ((_let_5 (bvand #b0000000000000000000000000000000000000000000000000000000000000001 (bvor x _let_4)))) (let ((_let_6 (bvor x (ehad x)))) (let ((_let_7 (im (bvand #b0000000000000000000000000000000000000000000000000000000000000001 _let_4) _let_3 (smol (smol _let_6))))) (im (bvand #b0000000000000000000000000000000000000000000000000000000000000001 _let_6) (im _let_5 (im (bvand #b0000000000000000000000000000000000000000000000000000000000000001 (bvor x (shesh x))) (im (bvand #b0000000000000000000000000000000000000000000000000000000000000001 (ehad (bvadd #b0000000000000000000000000000000000000000000000000000000000000001 x))) (im (bvand #b0000000000000000000000000000000000000000000000000000000000000001 x) _let_7 _let_3) _let_7) _let_3) _let_2) (im _let_5 _let_3 _let_2))))))))))
4.24user 0.04system 0:04.28elapsed 100%CPU (0avgtext+0avgdata 112688maxresident)k
0inputs+8outputs (0major+23098minor)pagefaults 0swaps
